macc8/reports/20260711-173107_formal/handshake_props/model/design_smt2.smt2
; SMT-LIBv2 description generated by Yosys 0.67+24 (git sha1 0e82bbefe, Release, Clang /usr/bin/clang++ 18.1.8)
; yosys-smt2-module macc8_serial_rx
(declare-sort |macc8_serial_rx_s| 0)
(declare-fun |macc8_serial_rx_is| (|macc8_serial_rx_s|) Bool)
; yosys-smt2-anyinit macc8_serial_rx#0 4 macc8_serial_rx.sv:33.3-43.6
; yosys-smt2-witness {"offset": 0, "path": ["\\_witness_", "\\anyinit_procdff_96"], "smtname": 0, "smtoffset": 0, "type": "init", "width": 4}
(declare-fun |macc8_serial_rx#0| (|macc8_serial_rx_s|) (_ BitVec 4)) ; \_witness_.anyinit_procdff_96
; yosys-smt2-register _witness_.anyinit_procdff_96 4
; yosys-smt2-wire _witness_.anyinit_procdff_96 4
(define-fun |macc8_serial_rx_n _witness_.anyinit_procdff_96| ((state |macc8_serial_rx_s|)) (_ BitVec 4) (|macc8_serial_rx#0| state))
; yosys-smt2-anyinit macc8_serial_rx#1 64 macc8_serial_rx.sv:33.3-43.6
; yosys-smt2-witness {"offset": 0, "path": ["\\_witness_", "\\anyinit_procdff_101"], "smtname": 1, "smtoffset": 0, "type": "init", "width": 64}
(declare-fun |macc8_serial_rx#1| (|macc8_serial_rx_s|) (_ BitVec 64)) ; \_witness_.anyinit_procdff_101
; yosys-smt2-register _witness_.anyinit_procdff_101 64
; yosys-smt2-wire _witness_.anyinit_procdff_101 64
(define-fun |macc8_serial_rx_n _witness_.anyinit_procdff_101| ((state |macc8_serial_rx_s|)) (_ BitVec 64) (|macc8_serial_rx#1| state))
(declare-fun |macc8_serial_rx#2| (|macc8_serial_rx_s|) Bool) ; \accept_en
; yosys-smt2-input accept_en 1
; yosys-smt2-wire accept_en 1
; yosys-smt2-witness {"offset": 0, "path": ["\\accept_en"], "smtname": "accept_en", "smtoffset": 0, "type": "input", "width": 1}
(define-fun |macc8_serial_rx_n accept_en| ((state |macc8_serial_rx_s|)) Bool (|macc8_serial_rx#2| state))
(declare-fun |macc8_serial_rx#3| (|macc8_serial_rx_s|) (_ BitVec 1)) ; \rst_n
(define-fun |macc8_serial_rx#4| ((state |macc8_serial_rx_s|)) (_ BitVec 64) (ite (= ((_ extract 0 0) (|macc8_serial_rx#3| state)) #b1) (|macc8_serial_rx#1| state) #b0000000000000000000000000000000000000000000000000000000000000000)) ; \act_regs_q
; yosys-smt2-output act_bus 64
; yosys-smt2-wire act_bus 64
(define-fun |macc8_serial_rx_n act_bus| ((state |macc8_serial_rx_s|)) (_ BitVec 64) (|macc8_serial_rx#4| state))
(declare-fun |macc8_serial_rx#5| (|macc8_serial_rx_s|) (_ BitVec 8)) ; \act_data
; yosys-smt2-input act_data 8
; yosys-smt2-wire act_data 8
; yosys-smt2-witness {"offset": 0, "path": ["\\act_data"], "smtname": "act_data", "smtoffset": 0, "type": "input", "width": 8}
(define-fun |macc8_serial_rx_n act_data| ((state |macc8_serial_rx_s|)) (_ BitVec 8) (|macc8_serial_rx#5| state))
(define-fun |macc8_serial_rx#6| ((state |macc8_serial_rx_s|)) (_ BitVec 4) (ite (= ((_ extract 0 0) (|macc8_serial_rx#3| state)) #b1) (|macc8_serial_rx#0| state) #b0000)) ; \cnt_q
(declare-fun |macc8_serial_rx#7| (|macc8_serial_rx_s|) (_ BitVec 4)) ; \active_lanes
(define-fun |macc8_serial_rx#8| ((state |macc8_serial_rx_s|)) Bool (bvuge (|macc8_serial_rx#6| state) (|macc8_serial_rx#7| state))) ; \act_full
; yosys-smt2-output act_full 1
; yosys-smt2-wire act_full 1
(define-fun |macc8_serial_rx_n act_full| ((state |macc8_serial_rx_s|)) Bool (|macc8_serial_rx#8| state))
(define-fun |macc8_serial_rx#9| ((state |macc8_serial_rx_s|)) (_ BitVec 1) (bvnot (ite (|macc8_serial_rx#8| state) #b1 #b0))) ; $not$macc8_serial_rx.sv:30$27_Y
(define-fun |macc8_serial_rx#10| ((state |macc8_serial_rx_s|)) (_ BitVec 1) (bvand (ite (|macc8_serial_rx#2| state) #b1 #b0) (|macc8_serial_rx#9| state))) ; \act_ready
; yosys-smt2-output act_ready 1
; yosys-smt2-wire act_ready 1
(define-fun |macc8_serial_rx_n act_ready| ((state |macc8_serial_rx_s|)) Bool (= ((_ extract 0 0) (|macc8_serial_rx#10| state)) #b1))
; yosys-smt2-wire act_regs_q 64
(define-fun |macc8_serial_rx_n act_regs_q| ((state |macc8_serial_rx_s|)) (_ BitVec 64) (|macc8_serial_rx#4| state))
(declare-fun |macc8_serial_rx#11| (|macc8_serial_rx_s|) Bool) ; \act_valid
; yosys-smt2-input act_valid 1
; yosys-smt2-wire act_valid 1
; yosys-smt2-witness {"offset": 0, "path": ["\\act_valid"], "smtname": "act_valid", "smtoffset": 0, "type": "input", "width": 1}
(define-fun |macc8_serial_rx_n act_valid| ((state |macc8_serial_rx_s|)) Bool (|macc8_serial_rx#11| state))
; yosys-smt2-input active_lanes 4
; yosys-smt2-wire active_lanes 4
; yosys-smt2-witness {"offset": 0, "path": ["\\active_lanes"], "smtname": "active_lanes", "smtoffset": 0, "type": "input", "width": 4}
(define-fun |macc8_serial_rx_n active_lanes| ((state |macc8_serial_rx_s|)) (_ BitVec 4) (|macc8_serial_rx#7| state))
(declare-fun |macc8_serial_rx#12| (|macc8_serial_rx_s|) Bool) ; \clk
; yosys-smt2-input clk 1
; yosys-smt2-wire clk 1
; yosys-smt2-clock clk posedge
; yosys-smt2-witness {"offset": 0, "path": ["\\clk"], "smtname": "clk", "smtoffset": 0, "type": "posedge", "width": 1}
; yosys-smt2-witness {"offset": 0, "path": ["\\clk"], "smtname": "clk", "smtoffset": 0, "type": "input", "width": 1}
(define-fun |macc8_serial_rx_n clk| ((state |macc8_serial_rx_s|)) Bool (|macc8_serial_rx#12| state))
; yosys-smt2-wire cnt_q 4
(define-fun |macc8_serial_rx_n cnt_q| ((state |macc8_serial_rx_s|)) (_ BitVec 4) (|macc8_serial_rx#6| state))
(declare-fun |macc8_serial_rx#13| (|macc8_serial_rx_s|) Bool) ; \consume
; yosys-smt2-input consume 1
; yosys-smt2-wire consume 1
; yosys-smt2-witness {"offset": 0, "path": ["\\consume"], "smtname": "consume", "smtoffset": 0, "type": "input", "width": 1}
(define-fun |macc8_serial_rx_n consume| ((state |macc8_serial_rx_s|)) Bool (|macc8_serial_rx#13| state))
; yosys-smt2-input rst_n 1
; yosys-smt2-wire rst_n 1
; yosys-smt2-witness {"offset": 0, "path": ["\\rst_n"], "smtname": "rst_n", "smtoffset": 0, "type": "input", "width": 1}
(define-fun |macc8_serial_rx_n rst_n| ((state |macc8_serial_rx_s|)) Bool (= ((_ extract 0 0) (|macc8_serial_rx#3| state)) #b1))
(define-fun |macc8_serial_rx#14| ((state |macc8_serial_rx_s|)) (_ BitVec 1) (bvnot (ite (|macc8_serial_rx#12| state) #b1 #b0))) ; $auto$rtlil.cc:3267:Not$199
; yosys-smt2-assume 0 $auto$formalff.cc:987:execute$200
(define-fun |macc8_serial_rx_u 0| ((state |macc8_serial_rx_s|)) Bool (or (= ((_ extract 0 0) (|macc8_serial_rx#14| state)) #b1) (not true))) ; $auto$formalff.cc:987:execute$200
(define-fun |macc8_serial_rx#15| ((state |macc8_serial_rx_s|)) (_ BitVec 33) (bvneg (concat #b00000000000000000000000000 (concat (|macc8_serial_rx#6| state) #b000)))) ; $neg$macc8_serial_rx.sv:40$43_Y
(define-fun |macc8_serial_rx#16| ((state |macc8_serial_rx_s|)) (_ BitVec 64) (ite (bvsge (|macc8_serial_rx#15| state) #b000000000000000000000000000000000) (bvlshr #b0000000000000000000000000000000000000000000000000000000011111111 (concat ((_ extract 32 32) (|macc8_serial_rx#15| state)) (concat ((_ extract 32 32) (|macc8_serial_rx#15| state)) (concat ((_ extract 32 32) (|macc8_serial_rx#15| state)) (concat ((_ extract 32 32) (|macc8_serial_rx#15| state)) (concat ((_ extract 32 32) (|macc8_serial_rx#15| state)) (concat ((_ extract 32 32) (|macc8_serial_rx#15| state)) (concat ((_ extract 32 32) (|macc8_serial_rx#15| state)) (concat ((_ extract 32 32) (|macc8_serial_rx#15| state)) (concat ((_ extract 32 32) (|macc8_serial_rx#15| state)) (concat ((_ extract 32 32) (|macc8_serial_rx#15| state)) (concat ((_ extract 32 32) (|macc8_serial_rx#15| state)) (concat ((_ extract 32 32) (|macc8_serial_rx#15| state)) (concat ((_ extract 32 32) (|macc8_serial_rx#15| state)) (concat ((_ extract 32 32) (|macc8_serial_rx#15| state)) (concat ((_ extract 32 32) (|macc8_serial_rx#15| state)) (concat ((_ extract 32 32) (|macc8_serial_rx#15| state)) (concat ((_ extract 32 32) (|macc8_serial_rx#15| state)) (concat ((_ extract 32 32) (|macc8_serial_rx#15| state)) (concat ((_ extract 32 32) (|macc8_serial_rx#15| state)) (concat ((_ extract 32 32) (|macc8_serial_rx#15| state)) (concat ((_ extract 32 32) (|macc8_serial_rx#15| state)) (concat ((_ extract 32 32) (|macc8_serial_rx#15| state)) (concat ((_ extract 32 32) (|macc8_serial_rx#15| state)) (concat ((_ extract 32 32) (|macc8_serial_rx#15| state)) (concat ((_ extract 32 32) (|macc8_serial_rx#15| state)) (concat ((_ extract 32 32) (|macc8_serial_rx#15| state)) (concat ((_ extract 32 32) (|macc8_serial_rx#15| state)) (concat ((_ extract 32 32) (|macc8_serial_rx#15| state)) (concat ((_ extract 32 32) (|macc8_serial_rx#15| state)) (concat ((_ extract 32 32) (|macc8_serial_rx#15| state)) (concat ((_ extract 32 32) (|macc8_serial_rx#15| state)) (|macc8_serial_rx#15| state))))))))))))))))))))))))))))))))) (bvshl #b0000000000000000000000000000000000000000000000000000000011111111 (bvneg (concat ((_ extract 32 32) (|macc8_serial_rx#15| state)) (concat ((_ extract 32 32) (|macc8_serial_rx#15| state)) (concat ((_ extract 32 32) (|macc8_serial_rx#15| state)) (concat ((_ extract 32 32) (|macc8_serial_rx#15| state)) (concat ((_ extract 32 32) (|macc8_serial_rx#15| state)) (concat ((_ extract 32 32) (|macc8_serial_rx#15| state)) (concat ((_ extract 32 32) (|macc8_serial_rx#15| state)) (concat ((_ extract 32 32) (|macc8_serial_rx#15| state)) (concat ((_ extract 32 32) (|macc8_serial_rx#15| state)) (concat ((_ extract 32 32) (|macc8_serial_rx#15| state)) (concat ((_ extract 32 32) (|macc8_serial_rx#15| state)) (concat ((_ extract 32 32) (|macc8_serial_rx#15| state)) (concat ((_ extract 32 32) (|macc8_serial_rx#15| state)) (concat ((_ extract 32 32) (|macc8_serial_rx#15| state)) (concat ((_ extract 32 32) (|macc8_serial_rx#15| state)) (concat ((_ extract 32 32) (|macc8_serial_rx#15| state)) (concat ((_ extract 32 32) (|macc8_serial_rx#15| state)) (concat ((_ extract 32 32) (|macc8_serial_rx#15| state)) (concat ((_ extract 32 32) (|macc8_serial_rx#15| state)) (concat ((_ extract 32 32) (|macc8_serial_rx#15| state)) (concat ((_ extract 32 32) (|macc8_serial_rx#15| state)) (concat ((_ extract 32 32) (|macc8_serial_rx#15| state)) (concat ((_ extract 32 32) (|macc8_serial_rx#15| state)) (concat ((_ extract 32 32) (|macc8_serial_rx#15| state)) (concat ((_ extract 32 32) (|macc8_serial_rx#15| state)) (concat ((_ extract 32 32) (|macc8_serial_rx#15| state)) (concat ((_ extract 32 32) (|macc8_serial_rx#15| state)) (concat ((_ extract 32 32) (|macc8_serial_rx#15| state)) (concat ((_ extract 32 32) (|macc8_serial_rx#15| state)) (concat ((_ extract 32 32) (|macc8_serial_rx#15| state)) (concat ((_ extract 32 32) (|macc8_serial_rx#15| state)) (|macc8_serial_rx#15| state)))))))))))))))))))))))))))))))))))) ; $shift$macc8_serial_rx.sv:40$44_Y
(define-fun |macc8_serial_rx#17| ((state |macc8_serial_rx_s|)) (_ BitVec 64) (bvnot (|macc8_serial_rx#16| state))) ; $not$macc8_serial_rx.sv:40$45_Y
(define-fun |macc8_serial_rx#18| ((state |macc8_serial_rx_s|)) (_ BitVec 64) (bvand (|macc8_serial_rx#4| state) (|macc8_serial_rx#17| state))) ; $and$macc8_serial_rx.sv:40$46_Y
(define-fun |macc8_serial_rx#19| ((state |macc8_serial_rx_s|)) (_ BitVec 64) (ite (bvsge (|macc8_serial_rx#15| state) #b000000000000000000000000000000000) (bvlshr (concat #b00000000000000000000000000000000000000000000000000000000 (|macc8_serial_rx#5| state)) (concat ((_ extract 32 32) (|macc8_serial_rx#15| state)) (concat ((_ extract 32 32) (|macc8_serial_rx#15| state)) (concat ((_ extract 32 32) (|macc8_serial_rx#15| state)) (concat ((_ extract 32 32) (|macc8_serial_rx#15| state)) (concat ((_ extract 32 32) (|macc8_serial_rx#15| state)) (concat ((_ extract 32 32) (|macc8_serial_rx#15| state)) (concat ((_ extract 32 32) (|macc8_serial_rx#15| state)) (concat ((_ extract 32 32) (|macc8_serial_rx#15| state)) (concat ((_ extract 32 32) (|macc8_serial_rx#15| state)) (concat ((_ extract 32 32) (|macc8_serial_rx#15| state)) (concat ((_ extract 32 32) (|macc8_serial_rx#15| state)) (concat ((_ extract 32 32) (|macc8_serial_rx#15| state)) (concat ((_ extract 32 32) (|macc8_serial_rx#15| state)) (concat ((_ extract 32 32) (|macc8_serial_rx#15| state)) (concat ((_ extract 32 32) (|macc8_serial_rx#15| state)) (concat ((_ extract 32 32) (|macc8_serial_rx#15| state)) (concat ((_ extract 32 32) (|macc8_serial_rx#15| state)) (concat ((_ extract 32 32) (|macc8_serial_rx#15| state)) (concat ((_ extract 32 32) (|macc8_serial_rx#15| state)) (concat ((_ extract 32 32) (|macc8_serial_rx#15| state)) (concat ((_ extract 32 32) (|macc8_serial_rx#15| state)) (concat ((_ extract 32 32) (|macc8_serial_rx#15| state)) (concat ((_ extract 32 32) (|macc8_serial_rx#15| state)) (concat ((_ extract 32 32) (|macc8_serial_rx#15| state)) (concat ((_ extract 32 32) (|macc8_serial_rx#15| state)) (concat ((_ extract 32 32) (|macc8_serial_rx#15| state)) (concat ((_ extract 32 32) (|macc8_serial_rx#15| state)) (concat ((_ extract 32 32) (|macc8_serial_rx#15| state)) (concat ((_ extract 32 32) (|macc8_serial_rx#15| state)) (concat ((_ extract 32 32) (|macc8_serial_rx#15| state)) (concat ((_ extract 32 32) (|macc8_serial_rx#15| state)) (|macc8_serial_rx#15| state))))))))))))))))))))))))))))))))) (bvshl (concat #b00000000000000000000000000000000000000000000000000000000 (|macc8_serial_rx#5| state)) (bvneg (concat ((_ extract 32 32) (|macc8_serial_rx#15| state)) (concat ((_ extract 32 32) (|macc8_serial_rx#15| state)) (concat ((_ extract 32 32) (|macc8_serial_rx#15| state)) (concat ((_ extract 32 32) (|macc8_serial_rx#15| state)) (concat ((_ extract 32 32) (|macc8_serial_rx#15| state)) (concat ((_ extract 32 32) (|macc8_serial_rx#15| state)) (concat ((_ extract 32 32) (|macc8_serial_rx#15| state)) (concat ((_ extract 32 32) (|macc8_serial_rx#15| state)) (concat ((_ extract 32 32) (|macc8_serial_rx#15| state)) (concat ((_ extract 32 32) (|macc8_serial_rx#15| state)) (concat ((_ extract 32 32) (|macc8_serial_rx#15| state)) (concat ((_ extract 32 32) (|macc8_serial_rx#15| state)) (concat ((_ extract 32 32) (|macc8_serial_rx#15| state)) (concat ((_ extract 32 32) (|macc8_serial_rx#15| state)) (concat ((_ extract 32 32) (|macc8_serial_rx#15| state)) (concat ((_ extract 32 32) (|macc8_serial_rx#15| state)) (concat ((_ extract 32 32) (|macc8_serial_rx#15| state)) (concat ((_ extract 32 32) (|macc8_serial_rx#15| state)) (concat ((_ extract 32 32) (|macc8_serial_rx#15| state)) (concat ((_ extract 32 32) (|macc8_serial_rx#15| state)) (concat ((_ extract 32 32) (|macc8_serial_rx#15| state)) (concat ((_ extract 32 32) (|macc8_serial_rx#15| state)) (concat ((_ extract 32 32) (|macc8_serial_rx#15| state)) (concat ((_ extract 32 32) (|macc8_serial_rx#15| state)) (concat ((_ extract 32 32) (|macc8_serial_rx#15| state)) (concat ((_ extract 32 32) (|macc8_serial_rx#15| state)) (concat ((_ extract 32 32) (|macc8_serial_rx#15| state)) (concat ((_ extract 32 32) (|macc8_serial_rx#15| state)) (concat ((_ extract 32 32) (|macc8_serial_rx#15| state)) (concat ((_ extract 32 32) (|macc8_serial_rx#15| state)) (concat ((_ extract 32 32) (|macc8_serial_rx#15| state)) (|macc8_serial_rx#15| state)))))))))))))))))))))))))))))))))))) ; $shift$macc8_serial_rx.sv:40$48_Y
(define-fun |macc8_serial_rx#20| ((state |macc8_serial_rx_s|)) (_ BitVec 64) (bvor (|macc8_serial_rx#18| state) (|macc8_serial_rx#19| state))) ; $or$macc8_serial_rx.sv:40$49_Y
(define-fun |macc8_serial_rx#21| ((state |macc8_serial_rx_s|)) (_ BitVec 1) (bvand (|macc8_serial_rx#10| state) (ite (|macc8_serial_rx#11| state) #b1 #b0))) ; $and$macc8_serial_rx.sv:39$38_Y
(define-fun |macc8_serial_rx#22| ((state |macc8_serial_rx_s|)) (_ BitVec 64) (ite (= ((_ extract 0 0) (|macc8_serial_rx#21| state)) #b1) (|macc8_serial_rx#20| state) (|macc8_serial_rx#4| state))) ; $3$lookahead\act_regs_q$29[63:0]$40
(define-fun |macc8_serial_rx#23| ((state |macc8_serial_rx_s|)) (_ BitVec 64) (ite (|macc8_serial_rx#13| state) (|macc8_serial_rx#4| state) (|macc8_serial_rx#22| state))) ; $0$lookahead\act_regs_q$29[63:0]$32
(define-fun |macc8_serial_rx#24| ((state |macc8_serial_rx_s|)) (_ BitVec 64) (ite (= ((_ extract 0 0) (|macc8_serial_rx#3| state)) #b1) (|macc8_serial_rx#23| state) #b0000000000000000000000000000000000000000000000000000000000000000)) ; $auto$rtlil.cc:3402:Mux$190
(define-fun |macc8_serial_rx#25| ((state |macc8_serial_rx_s|)) (_ BitVec 4) (bvadd (|macc8_serial_rx#6| state) #b0001)) ; $add$macc8_serial_rx.sv:41$50_Y
(define-fun |macc8_serial_rx#26| ((state |macc8_serial_rx_s|)) (_ BitVec 4) (ite (= ((_ extract 0 0) (|macc8_serial_rx#21| state)) #b1) (|macc8_serial_rx#25| state) (|macc8_serial_rx#6| state))) ; $procmux$70_Y
(define-fun |macc8_serial_rx#27| ((state |macc8_serial_rx_s|)) (_ BitVec 4) (ite (|macc8_serial_rx#13| state) #b0000 (|macc8_serial_rx#26| state))) ; $0\cnt_q[3:0]
(define-fun |macc8_serial_rx#28| ((state |macc8_serial_rx_s|)) (_ BitVec 4) (ite (= ((_ extract 0 0) (|macc8_serial_rx#3| state)) #b1) (|macc8_serial_rx#27| state) #b0000)) ; $auto$rtlil.cc:3402:Mux$188
(define-fun |macc8_serial_rx_a| ((state |macc8_serial_rx_s|)) Bool true)
(define-fun |macc8_serial_rx_u| ((state |macc8_serial_rx_s|)) Bool 
  (|macc8_serial_rx_u 0| state)
)
(define-fun |macc8_serial_rx_i| ((state |macc8_serial_rx_s|)) Bool true)
(define-fun |macc8_serial_rx_h| ((state |macc8_serial_rx_s|)) Bool true)
(define-fun |macc8_serial_rx_t| ((state |macc8_serial_rx_s|) (next_state |macc8_serial_rx_s|)) Bool (and
  (= (|macc8_serial_rx#24| state) (|macc8_serial_rx#1| next_state)) ; $procdff$101 \_witness_.anyinit_procdff_101
  (= (|macc8_serial_rx#28| state) (|macc8_serial_rx#0| next_state)) ; $procdff$96 \_witness_.anyinit_procdff_96
)) ; end of module macc8_serial_rx
; yosys-smt2-module macc8_props_rx
(declare-sort |macc8_props_rx_s| 0)
(declare-fun |macc8_props_rx_is| (|macc8_props_rx_s|) Bool)
; yosys-smt2-witness {"offset": 0, "path": ["$auto$async2sync.cc:107:execute$141"], "smtname": 0, "smtoffset": 0, "type": "reg", "width": 1}
(declare-fun |macc8_props_rx#0| (|macc8_props_rx_s|) (_ BitVec 1)) ; $auto$async2sync.cc:107:execute$141
; yosys-smt2-register $auto$async2sync.cc:107:execute$141 1
(define-fun |macc8_props_rx_n $auto$async2sync.cc:107:execute$141| ((state |macc8_props_rx_s|)) Bool (= ((_ extract 0 0) (|macc8_props_rx#0| state)) #b1))
; yosys-smt2-witness {"offset": 0, "path": ["$auto$async2sync.cc:116:execute$133"], "smtname": 1, "smtoffset": 0, "type": "reg", "width": 1}
(declare-fun |macc8_props_rx#1| (|macc8_props_rx_s|) (_ BitVec 1)) ; $auto$async2sync.cc:116:execute$133
; yosys-smt2-register $auto$async2sync.cc:116:execute$133 1
(define-fun |macc8_props_rx_n $auto$async2sync.cc:116:execute$133| ((state |macc8_props_rx_s|)) Bool (= ((_ extract 0 0) (|macc8_props_rx#1| state)) #b1))
; yosys-smt2-witness {"offset": 0, "path": ["$auto$async2sync.cc:116:execute$127"], "smtname": 2, "smtoffset": 0, "type": "reg", "width": 1}
(declare-fun |macc8_props_rx#2| (|macc8_props_rx_s|) (_ BitVec 1)) ; $auto$async2sync.cc:116:execute$127
; yosys-smt2-register $auto$async2sync.cc:116:execute$127 1
(define-fun |macc8_props_rx_n $auto$async2sync.cc:116:execute$127| ((state |macc8_props_rx_s|)) Bool (= ((_ extract 0 0) (|macc8_props_rx#2| state)) #b1))
; yosys-smt2-witness {"offset": 0, "path": ["$auto$async2sync.cc:116:execute$139"], "smtname": 3, "smtoffset": 0, "type": "reg", "width": 1}
(declare-fun |macc8_props_rx#3| (|macc8_props_rx_s|) (_ BitVec 1)) ; $auto$async2sync.cc:116:execute$139
; yosys-smt2-register $auto$async2sync.cc:116:execute$139 1
(define-fun |macc8_props_rx_n $auto$async2sync.cc:116:execute$139| ((state |macc8_props_rx_s|)) Bool (= ((_ extract 0 0) (|macc8_props_rx#3| state)) #b1))
; yosys-smt2-witness {"offset": 0, "path": ["$auto$async2sync.cc:107:execute$135"], "smtname": 4, "smtoffset": 0, "type": "reg", "width": 1}
(declare-fun |macc8_props_rx#4| (|macc8_props_rx_s|) (_ BitVec 1)) ; $auto$async2sync.cc:107:execute$135
; yosys-smt2-register $auto$async2sync.cc:107:execute$135 1
(define-fun |macc8_props_rx_n $auto$async2sync.cc:107:execute$135| ((state |macc8_props_rx_s|)) Bool (= ((_ extract 0 0) (|macc8_props_rx#4| state)) #b1))
; yosys-smt2-witness {"offset": 0, "path": ["$auto$async2sync.cc:116:execute$121"], "smtname": 5, "smtoffset": 0, "type": "reg", "width": 1}
(declare-fun |macc8_props_rx#5| (|macc8_props_rx_s|) (_ BitVec 1)) ; $auto$async2sync.cc:116:execute$121
; yosys-smt2-register $auto$async2sync.cc:116:execute$121 1
(define-fun |macc8_props_rx_n $auto$async2sync.cc:116:execute$121| ((state |macc8_props_rx_s|)) Bool (= ((_ extract 0 0) (|macc8_props_rx#5| state)) #b1))
; yosys-smt2-witness {"offset": 0, "path": ["$auto$async2sync.cc:116:execute$145"], "smtname": 6, "smtoffset": 0, "type": "reg", "width": 1}
(declare-fun |macc8_props_rx#6| (|macc8_props_rx_s|) (_ BitVec 1)) ; $auto$async2sync.cc:116:execute$145
; yosys-smt2-register $auto$async2sync.cc:116:execute$145 1
(define-fun |macc8_props_rx_n $auto$async2sync.cc:116:execute$145| ((state |macc8_props_rx_s|)) Bool (= ((_ extract 0 0) (|macc8_props_rx#6| state)) #b1))
; yosys-smt2-witness {"offset": 0, "path": ["$auto$async2sync.cc:107:execute$117"], "smtname": 7, "smtoffset": 0, "type": "reg", "width": 1}
(declare-fun |macc8_props_rx#7| (|macc8_props_rx_s|) (_ BitVec 1)) ; $auto$async2sync.cc:107:execute$117
; yosys-smt2-register $auto$async2sync.cc:107:execute$117 1
(define-fun |macc8_props_rx_n $auto$async2sync.cc:107:execute$117| ((state |macc8_props_rx_s|)) Bool (= ((_ extract 0 0) (|macc8_props_rx#7| state)) #b1))
; yosys-smt2-anyinit macc8_props_rx#8 1 macc8_props_rx.sv:31.3-45.6
; yosys-smt2-witness {"offset": 0, "path": ["\\_witness_", "\\anyinit_procdff_112"], "smtname": 8, "smtoffset": 0, "type": "init", "width": 1}
(declare-fun |macc8_props_rx#8| (|macc8_props_rx_s|) (_ BitVec 1)) ; \_witness_.anyinit_procdff_112
; yosys-smt2-register _witness_.anyinit_procdff_112 1
; yosys-smt2-wire _witness_.anyinit_procdff_112 1
(define-fun |macc8_props_rx_n _witness_.anyinit_procdff_112| ((state |macc8_props_rx_s|)) Bool (= ((_ extract 0 0) (|macc8_props_rx#8| state)) #b1))
; yosys-smt2-anyinit macc8_props_rx#9 1 macc8_props_rx.sv:31.3-45.6
; yosys-smt2-witness {"offset": 0, "path": ["\\_witness_", "\\anyinit_procdff_113"], "smtname": 9, "smtoffset": 0, "type": "init", "width": 1}
(declare-fun |macc8_props_rx#9| (|macc8_props_rx_s|) (_ BitVec 1)) ; \_witness_.anyinit_procdff_113
; yosys-smt2-register _witness_.anyinit_procdff_113 1
; yosys-smt2-wire _witness_.anyinit_procdff_113 1
(define-fun |macc8_props_rx_n _witness_.anyinit_procdff_113| ((state |macc8_props_rx_s|)) Bool (= ((_ extract 0 0) (|macc8_props_rx#9| state)) #b1))
; yosys-smt2-witness {"offset": 0, "path": ["\\past_valid"], "smtname": 10, "smtoffset": 0, "type": "reg", "width": 1}
(declare-fun |macc8_props_rx#10| (|macc8_props_rx_s|) (_ BitVec 1)) ; \past_valid
(define-fun |macc8_props_rx#11| ((state |macc8_props_rx_s|)) Bool (and (or  (= ((_ extract 0 0) (|macc8_props_rx#10| state)) #b1) false) (or  (= ((_ extract 0 0) (|macc8_props_rx#8| state)) #b1) false))) ; $logic_and$macc8_props_rx.sv:41$20_Y
(define-fun |macc8_props_rx#12| ((state |macc8_props_rx_s|)) (_ BitVec 1) (ite (|macc8_props_rx#11| state) #b1 #b0)) ; $procmux$75_Y
(declare-fun |macc8_props_rx#13| (|macc8_props_rx_s|) (_ BitVec 1)) ; \rst_n
(define-fun |macc8_props_rx#14| ((state |macc8_props_rx_s|)) (_ BitVec 1) (ite (= ((_ extract 0 0) (|macc8_props_rx#13| state)) #b1) (|macc8_props_rx#12| state) #b0)) ; \a_consume_clears_EN
; yosys-smt2-wire a_consume_clears_EN 1
(define-fun |macc8_props_rx_n a_consume_clears_EN| ((state |macc8_props_rx_s|)) Bool (= ((_ extract 0 0) (|macc8_props_rx#14| state)) #b1))
(define-fun |macc8_props_rx#15| ((state |macc8_props_rx_s|)) (_ BitVec 1) (ite (= ((_ extract 0 0) (|macc8_props_rx#13| state)) #b1) #b1 #b0)) ; \a_full_blocks_EN
; yosys-smt2-wire a_full_blocks_EN 1
(define-fun |macc8_props_rx_n a_full_blocks_EN| ((state |macc8_props_rx_s|)) Bool (= ((_ extract 0 0) (|macc8_props_rx#15| state)) #b1))
; yosys-smt2-wire a_ready_def_EN 1
(define-fun |macc8_props_rx_n a_ready_def_EN| ((state |macc8_props_rx_s|)) Bool (= ((_ extract 0 0) (|macc8_props_rx#15| state)) #b1))
; yosys-smt2-wire a_ready_needs_en_EN 1
(define-fun |macc8_props_rx_n a_ready_needs_en_EN| ((state |macc8_props_rx_s|)) Bool (= ((_ extract 0 0) (|macc8_props_rx#15| state)) #b1))
(define-fun |macc8_props_rx#16| ((state |macc8_props_rx_s|)) (_ BitVec 1) (ite (= ((_ extract 0 0) (|macc8_props_rx#13| state)) #b1) #b0 #b1)) ; \a_reset_empty_EN
; yosys-smt2-wire a_reset_empty_EN 1
(define-fun |macc8_props_rx_n a_reset_empty_EN| ((state |macc8_props_rx_s|)) Bool (= ((_ extract 0 0) (|macc8_props_rx#16| state)) #b1))
(declare-fun |macc8_props_rx#17| (|macc8_props_rx_s|) Bool) ; \accept_en
; yosys-smt2-input accept_en 1
; yosys-smt2-wire accept_en 1
; yosys-smt2-witness {"offset": 0, "path": ["\\accept_en"], "smtname": "accept_en", "smtoffset": 0, "type": "input", "width": 1}
(define-fun |macc8_props_rx_n accept_en| ((state |macc8_props_rx_s|)) Bool (|macc8_props_rx#17| state))
; yosys-smt2-cell macc8_serial_rx dut
; yosys-smt2-witness {"path": ["\\dut"], "smtname": "dut", "type": "cell"}
(declare-fun |macc8_props_rx#18| (|macc8_props_rx_s|) (_ BitVec 64)) ; \act_bus
(declare-fun |macc8_props_rx#19| (|macc8_props_rx_s|) Bool) ; \act_full
(declare-fun |macc8_props_rx#20| (|macc8_props_rx_s|) Bool) ; \act_ready
(declare-fun |macc8_props_rx_h dut| (|macc8_props_rx_s|) |macc8_serial_rx_s|)
; yosys-smt2-wire act_bus 64
(define-fun |macc8_props_rx_n act_bus| ((state |macc8_props_rx_s|)) (_ BitVec 64) (|macc8_props_rx#18| state))
(declare-fun |macc8_props_rx#21| (|macc8_props_rx_s|) (_ BitVec 8)) ; \act_data
; yosys-smt2-input act_data 8
; yosys-smt2-wire act_data 8
; yosys-smt2-witness {"offset": 0, "path": ["\\act_data"], "smtname": "act_data", "smtoffset": 0, "type": "input", "width": 8}
(define-fun |macc8_props_rx_n act_data| ((state |macc8_props_rx_s|)) (_ BitVec 8) (|macc8_props_rx#21| state))
; yosys-smt2-wire act_full 1
(define-fun |macc8_props_rx_n act_full| ((state |macc8_props_rx_s|)) Bool (|macc8_props_rx#19| state))
; yosys-smt2-wire act_ready 1
(define-fun |macc8_props_rx_n act_ready| ((state |macc8_props_rx_s|)) Bool (|macc8_props_rx#20| state))
(declare-fun |macc8_props_rx#22| (|macc8_props_rx_s|) Bool) ; \act_valid
; yosys-smt2-input act_valid 1
; yosys-smt2-wire act_valid 1
; yosys-smt2-witness {"offset": 0, "path": ["\\act_valid"], "smtname": "act_valid", "smtoffset": 0, "type": "input", "width": 1}
(define-fun |macc8_props_rx_n act_valid| ((state |macc8_props_rx_s|)) Bool (|macc8_props_rx#22| state))
(declare-fun |macc8_props_rx#23| (|macc8_props_rx_s|) (_ BitVec 4)) ; \active_lanes
; yosys-smt2-input active_lanes 4
; yosys-smt2-wire active_lanes 4
; yosys-smt2-witness {"offset": 0, "path": ["\\active_lanes"], "smtname": "active_lanes", "smtoffset": 0, "type": "input", "width": 4}
(define-fun |macc8_props_rx_n active_lanes| ((state |macc8_props_rx_s|)) (_ BitVec 4) (|macc8_props_rx#23| state))
(declare-fun |macc8_props_rx#24| (|macc8_props_rx_s|) Bool) ; \clk
; yosys-smt2-input clk 1
; yosys-smt2-wire clk 1
; yosys-smt2-clock clk posedge
; yosys-smt2-witness {"offset": 0, "path": ["\\clk"], "smtname": "clk", "smtoffset": 0, "type": "posedge", "width": 1}
; yosys-smt2-witness {"offset": 0, "path": ["\\clk"], "smtname": "clk", "smtoffset": 0, "type": "input", "width": 1}
(define-fun |macc8_props_rx_n clk| ((state |macc8_props_rx_s|)) Bool (|macc8_props_rx#24| state))
(declare-fun |macc8_props_rx#25| (|macc8_props_rx_s|) Bool) ; \consume
; yosys-smt2-input consume 1
; yosys-smt2-wire consume 1
; yosys-smt2-witness {"offset": 0, "path": ["\\consume"], "smtname": "consume", "smtoffset": 0, "type": "input", "width": 1}
(define-fun |macc8_props_rx_n consume| ((state |macc8_props_rx_s|)) Bool (|macc8_props_rx#25| state))
; yosys-smt2-wire m_lanes_EN 1
(define-fun |macc8_props_rx_n m_lanes_EN| ((state |macc8_props_rx_s|)) Bool true)
; yosys-smt2-register past_valid 1
; yosys-smt2-wire past_valid 1
(define-fun |macc8_props_rx_n past_valid| ((state |macc8_props_rx_s|)) Bool (= ((_ extract 0 0) (|macc8_props_rx#10| state)) #b1))
; yosys-smt2-input rst_n 1
; yosys-smt2-wire rst_n 1
; yosys-smt2-witness {"offset": 0, "path": ["\\rst_n"], "smtname": "rst_n", "smtoffset": 0, "type": "input", "width": 1}
(define-fun |macc8_props_rx_n rst_n| ((state |macc8_props_rx_s|)) Bool (= ((_ extract 0 0) (|macc8_props_rx#13| state)) #b1))
(define-fun |macc8_props_rx#26| ((state |macc8_props_rx_s|)) (_ BitVec 1) (bvnot (ite (|macc8_props_rx#24| state) #b1 #b0))) ; $auto$rtlil.cc:3267:Not$196
; yosys-smt2-assume 0 $auto$formalff.cc:987:execute$197
(define-fun |macc8_props_rx_u 0| ((state |macc8_props_rx_s|)) Bool (or (= ((_ extract 0 0) (|macc8_props_rx#26| state)) #b1) (not true))) ; $auto$formalff.cc:987:execute$197
; yosys-smt2-assert 0 a_consume_clears
(define-fun |macc8_props_rx_a 0| ((state |macc8_props_rx_s|)) Bool (or (= ((_ extract 0 0) (|macc8_props_rx#5| state)) #b1) (not (= ((_ extract 0 0) (|macc8_props_rx#7| state)) #b1)))) ; a_consume_clears
; yosys-smt2-assert 1 a_full_blocks
(define-fun |macc8_props_rx_a 1| ((state |macc8_props_rx_s|)) Bool (or (= ((_ extract 0 0) (|macc8_props_rx#2| state)) #b1) (not (= ((_ extract 0 0) (|macc8_props_rx#4| state)) #b1)))) ; a_full_blocks
; yosys-smt2-assert 2 a_ready_def
(define-fun |macc8_props_rx_a 2| ((state |macc8_props_rx_s|)) Bool (or (= ((_ extract 0 0) (|macc8_props_rx#1| state)) #b1) (not (= ((_ extract 0 0) (|macc8_props_rx#4| state)) #b1)))) ; a_ready_def
; yosys-smt2-assert 3 a_ready_needs_en
(define-fun |macc8_props_rx_a 3| ((state |macc8_props_rx_s|)) Bool (or (= ((_ extract 0 0) (|macc8_props_rx#3| state)) #b1) (not (= ((_ extract 0 0) (|macc8_props_rx#4| state)) #b1)))) ; a_ready_needs_en
; yosys-smt2-assert 4 a_reset_empty
(define-fun |macc8_props_rx_a 4| ((state |macc8_props_rx_s|)) Bool (or (= ((_ extract 0 0) (|macc8_props_rx#6| state)) #b1) (not (= ((_ extract 0 0) (|macc8_props_rx#0| state)) #b1)))) ; a_reset_empty
(define-fun |macc8_props_rx#27| ((state |macc8_props_rx_s|)) Bool (= (|macc8_props_rx#23| state) #b0100)) ; $eq$macc8_props_rx.sv:33$7_Y
(define-fun |macc8_props_rx#28| ((state |macc8_props_rx_s|)) Bool (= (|macc8_props_rx#23| state) #b1000)) ; $eq$macc8_props_rx.sv:33$8_Y
(define-fun |macc8_props_rx#29| ((state |macc8_props_rx_s|)) Bool (or  (|macc8_props_rx#27| state) false  (|macc8_props_rx#28| state) false)) ; $logic_or$macc8_props_rx.sv:33$9_Y
; yosys-smt2-assume 1 m_lanes
(define-fun |macc8_props_rx_u 1| ((state |macc8_props_rx_s|)) Bool (or (|macc8_props_rx#29| state) (not true))) ; m_lanes
(define-fun |macc8_props_rx#30| ((state |macc8_props_rx_s|)) Bool (not (or  (|macc8_props_rx#19| state) false))) ; $logic_not$macc8_props_rx.sv:36$11_Y
(define-fun |macc8_props_rx#31| ((state |macc8_props_rx_s|)) Bool (not (or  (= ((_ extract 0 0) (|macc8_props_rx#9| state)) #b1) false))) ; $logic_not$macc8_props_rx.sv:42$21_Y
(define-fun |macc8_props_rx#32| ((state |macc8_props_rx_s|)) Bool (or  (|macc8_props_rx#31| state) false  (|macc8_props_rx#30| state) false)) ; $logic_or$macc8_props_rx.sv:42$23_Y
(define-fun |macc8_props_rx#33| ((state |macc8_props_rx_s|)) Bool (not (or  (|macc8_props_rx#20| state) false))) ; $logic_not$macc8_props_rx.sv:39$16_Y
(define-fun |macc8_props_rx#34| ((state |macc8_props_rx_s|)) Bool (or  (|macc8_props_rx#33| state) false  (|macc8_props_rx#17| state) false)) ; $logic_or$macc8_props_rx.sv:40$19_Y
(define-fun |macc8_props_rx#35| ((state |macc8_props_rx_s|)) Bool (or  (|macc8_props_rx#30| state) false  (|macc8_props_rx#33| state) false)) ; $logic_or$macc8_props_rx.sv:39$17_Y
(define-fun |macc8_props_rx#36| ((state |macc8_props_rx_s|)) Bool (and (or  (|macc8_props_rx#17| state) false) (or  (|macc8_props_rx#30| state) false))) ; $logic_and$macc8_props_rx.sv:38$13_Y
(define-fun |macc8_props_rx#37| ((state |macc8_props_rx_s|)) Bool (= (ite (|macc8_props_rx#20| state) #b1 #b0) (ite (|macc8_props_rx#36| state) #b1 #b0))) ; $eq$macc8_props_rx.sv:38$14_Y
(define-fun |macc8_props_rx_a| ((state |macc8_props_rx_s|)) Bool (and
  (|macc8_props_rx_a 0| state)
  (|macc8_props_rx_a 1| state)
  (|macc8_props_rx_a 2| state)
  (|macc8_props_rx_a 3| state)
  (|macc8_props_rx_a 4| state)
  (|macc8_serial_rx_a| (|macc8_props_rx_h dut| state))
))
(define-fun |macc8_props_rx_u| ((state |macc8_props_rx_s|)) Bool (and
  (|macc8_props_rx_u 0| state)
  (|macc8_props_rx_u 1| state)
  (|macc8_serial_rx_u| (|macc8_props_rx_h dut| state))
))
(define-fun |macc8_props_rx_i| ((state |macc8_props_rx_s|)) Bool (and
  (= (= ((_ extract 0 0) (|macc8_props_rx#0| state)) #b1) false) ; $auto$async2sync.cc:107:execute$141
  (= (= ((_ extract 0 0) (|macc8_props_rx#1| state)) #b1) true) ; $auto$async2sync.cc:116:execute$133
  (= (= ((_ extract 0 0) (|macc8_props_rx#2| state)) #b1) true) ; $auto$async2sync.cc:116:execute$127
  (= (= ((_ extract 0 0) (|macc8_props_rx#3| state)) #b1) true) ; $auto$async2sync.cc:116:execute$139
  (= (= ((_ extract 0 0) (|macc8_props_rx#4| state)) #b1) false) ; $auto$async2sync.cc:107:execute$135
  (= (= ((_ extract 0 0) (|macc8_props_rx#5| state)) #b1) true) ; $auto$async2sync.cc:116:execute$121
  (= (= ((_ extract 0 0) (|macc8_props_rx#6| state)) #b1) true) ; $auto$async2sync.cc:116:execute$145
  (= (= ((_ extract 0 0) (|macc8_props_rx#7| state)) #b1) false) ; $auto$async2sync.cc:107:execute$117
  (= (= ((_ extract 0 0) (|macc8_props_rx#10| state)) #b1) false) ; past_valid
  (|macc8_serial_rx_i| (|macc8_props_rx_h dut| state))
))
(define-fun |macc8_props_rx_h| ((state |macc8_props_rx_s|)) Bool (and
  (= (|macc8_props_rx_is| state) (|macc8_serial_rx_is| (|macc8_props_rx_h dut| state)))
  (= (|macc8_props_rx#17| state) (|macc8_serial_rx_n accept_en| (|macc8_props_rx_h dut| state))) ; macc8_serial_rx.accept_en
  (= (|macc8_props_rx#18| state) (|macc8_serial_rx_n act_bus| (|macc8_props_rx_h dut| state))) ; macc8_serial_rx.act_bus
  (= (|macc8_props_rx#21| state) (|macc8_serial_rx_n act_data| (|macc8_props_rx_h dut| state))) ; macc8_serial_rx.act_data
  (= (|macc8_props_rx#19| state) (|macc8_serial_rx_n act_full| (|macc8_props_rx_h dut| state))) ; macc8_serial_rx.act_full
  (= (|macc8_props_rx#20| state) (|macc8_serial_rx_n act_ready| (|macc8_props_rx_h dut| state))) ; macc8_serial_rx.act_ready
  (= (|macc8_props_rx#22| state) (|macc8_serial_rx_n act_valid| (|macc8_props_rx_h dut| state))) ; macc8_serial_rx.act_valid
  (= (|macc8_props_rx#23| state) (|macc8_serial_rx_n active_lanes| (|macc8_props_rx_h dut| state))) ; macc8_serial_rx.active_lanes
  (= (|macc8_props_rx#24| state) (|macc8_serial_rx_n clk| (|macc8_props_rx_h dut| state))) ; macc8_serial_rx.clk
  (= (|macc8_props_rx#25| state) (|macc8_serial_rx_n consume| (|macc8_props_rx_h dut| state))) ; macc8_serial_rx.consume
  (= (= ((_ extract 0 0) (|macc8_props_rx#13| state)) #b1) (|macc8_serial_rx_n rst_n| (|macc8_props_rx_h dut| state))) ; macc8_serial_rx.rst_n
  (|macc8_serial_rx_h| (|macc8_props_rx_h dut| state))
))
(define-fun |macc8_props_rx_t| ((state |macc8_props_rx_s|) (next_state |macc8_props_rx_s|)) Bool (and
  (= #b1 (|macc8_props_rx#10| next_state)) ; $procdff$114 \past_valid
  (= (ite (|macc8_props_rx#25| state) #b1 #b0) (|macc8_props_rx#9| next_state)) ; $procdff$113 \_witness_.anyinit_procdff_113
  (= (|macc8_props_rx#13| state) (|macc8_props_rx#8| next_state)) ; $procdff$112 \_witness_.anyinit_procdff_112
  (= (|macc8_props_rx#14| state) (|macc8_props_rx#7| next_state)) ; $auto$async2sync.cc:110:execute$119 $auto$async2sync.cc:107:execute$117
  (= (ite (|macc8_props_rx#30| state) #b1 #b0) (|macc8_props_rx#6| next_state)) ; $auto$async2sync.cc:118:execute$146 $auto$async2sync.cc:116:execute$145
  (= (ite (|macc8_props_rx#32| state) #b1 #b0) (|macc8_props_rx#5| next_state)) ; $auto$async2sync.cc:118:execute$122 $auto$async2sync.cc:116:execute$121
  (= (|macc8_props_rx#15| state) (|macc8_props_rx#4| next_state)) ; $auto$async2sync.cc:110:execute$137 $auto$async2sync.cc:107:execute$135
  (= (ite (|macc8_props_rx#34| state) #b1 #b0) (|macc8_props_rx#3| next_state)) ; $auto$async2sync.cc:118:execute$140 $auto$async2sync.cc:116:execute$139
  (= (ite (|macc8_props_rx#35| state) #b1 #b0) (|macc8_props_rx#2| next_state)) ; $auto$async2sync.cc:118:execute$128 $auto$async2sync.cc:116:execute$127
  (= (ite (|macc8_props_rx#37| state) #b1 #b0) (|macc8_props_rx#1| next_state)) ; $auto$async2sync.cc:118:execute$134 $auto$async2sync.cc:116:execute$133
  (= (|macc8_props_rx#16| state) (|macc8_props_rx#0| next_state)) ; $auto$async2sync.cc:110:execute$143 $auto$async2sync.cc:107:execute$141
  (|macc8_serial_rx_t| (|macc8_props_rx_h dut| state) (|macc8_props_rx_h dut| next_state))
)) ; end of module macc8_props_rx
; yosys-smt2-topmod macc8_props_rx
; end of yosys output
